
n_res = 8;
rcap = [84, 78, 77, 78, 1511, 1531, 1559, 1489];
rtype = [1, 1, 1, 1, 2, 2, 2, 2];
n_tasks = 100;
modes =  [{1, 2, 3}, {4, 5, 6}, {7, 8, 9}, {10, 11, 12}, {13, 14, 15}, {16, 17, 18}, {19, 20, 21}, {22, 23, 24}, {25, 26, 27}, {28, 29, 30}, {31, 32, 33}, {34, 35, 36}, {37, 38, 39}, {40, 41, 42}, {43, 44, 45}, {46, 47, 48}, {49, 50, 51}, {52, 53, 54}, {55, 56, 57}, {58, 59, 60}, {61, 62, 63}, {64, 65, 66}, {67, 68, 69}, {70, 71, 72}, {73, 74, 75}, {76, 77, 78}, {79, 80, 81}, {82, 83, 84}, {85, 86, 87}, {88, 89, 90}, {91, 92, 93}, {94, 95, 96}, {97, 98, 99}, {100, 101, 102}, {103, 104, 105}, {106, 107, 108}, {109, 110, 111}, {112, 113, 114}, {115, 116, 117}, {118, 119, 120}, {121, 122, 123}, {124, 125, 126}, {127, 128, 129}, {130, 131, 132}, {133, 134, 135}, {136, 137, 138}, {139, 140, 141}, {142, 143, 144}, {145, 146, 147}, {148, 149, 150}, {151, 152, 153}, {154, 155, 156}, {157, 158, 159}, {160, 161, 162}, {163, 164, 165}, {166, 167, 168}, {169, 170, 171}, {172, 173, 174}, {175, 176, 177}, {178, 179, 180}, {181, 182, 183}, {184, 185, 186}, {187, 188, 189}, {190, 191, 192}, {193, 194, 195}, {196, 197, 198}, {199, 200, 201}, {202, 203, 204}, {205, 206, 207}, {208, 209, 210}, {211, 212, 213}, {214, 215, 216}, {217, 218, 219}, {220, 221, 222}, {223, 224, 225}, {226, 227, 228}, {229, 230, 231}, {232, 233, 234}, {235, 236, 237}, {238, 239, 240}, {241, 242, 243}, {244, 245, 246}, {247, 248, 249}, {250, 251, 252}, {253, 254, 255}, {256, 257, 258}, {259, 260, 261}, {262, 263, 264}, {265, 266, 267}, {268, 269, 270}, {271, 272, 273}, {274, 275, 276}, {277, 278, 279}, {280, 281, 282}, {283, 284, 285}, {286, 287, 288}, {289, 290, 291}, {292, 293, 294}, {295, 296, 297}, {298, 299, 300}];
succ =  [{100, 98, 97, 95, 74, 67, 60, 56, 53, 49, 40, 39, 37, 33, 29, 11}, {100, 99, 98, 95, 73, 71, 69, 68, 66, 65, 59, 51, 49, 47, 46, 43, 39, 37, 32, 30, 26}, {97, 95, 93, 71, 70, 69, 68, 67, 65, 61, 53, 46, 38, 37, 33, 32}, {99, 97, 96, 95, 89, 87, 73, 71, 70, 67, 66, 65, 64, 63, 59, 58, 55, 46, 33}, {100, 98, 97, 96, 95, 94, 72, 70, 68, 67, 64, 59, 52, 47, 45, 41, 38}, {100, 99, 98, 94, 92, 90, 89, 88, 74, 73, 72, 66, 60, 59, 52, 41, 39, 37}, {100, 95, 90, 73, 71, 70, 69, 65, 59, 52, 50, 46, 32, 30}, {98, 94, 91, 90, 87, 74, 71, 67, 65, 60, 59, 48, 37, 31}, {88, 74, 68, 66, 65, 55, 39, 37, 34, 26}, {99, 97, 91, 72, 71, 68, 60, 56, 51, 50, 29, 24}, {96, 71, 70, 65, 63, 61, 55, 16}, {100, 99, 96, 94, 91, 89, 87, 74, 73, 68, 66, 64, 59, 58, 57, 51, 50, 41}, {98, 93, 91, 90, 89, 88, 87, 74, 71, 70, 65, 46, 43, 37}, {100, 99, 95, 92, 91, 90, 88, 87, 85, 72, 71, 70, 60, 59, 37}, {99, 96, 95, 87, 73, 71, 70, 67, 64, 60, 58, 57, 33}, {99, 91, 90, 89, 87, 85, 84, 81, 73, 72, 68, 66, 64, 59, 58, 57, 46}, {97, 96, 95, 91, 90, 89, 88, 87, 85, 70, 46, 37}, {98, 97, 90, 88, 70, 69, 67, 66, 55, 46, 37}, {95, 94, 93, 92, 87, 73, 52, 51, 48, 41, 37}, {98, 94, 92, 72, 71, 70, 64, 57, 33}, {97, 91, 90, 89, 83, 78, 72, 64, 59, 58, 57, 56, 44}, {98, 93, 92, 90, 89, 88, 87, 72, 71, 70, 37}, {95, 93, 92, 88, 87, 85, 83, 70, 67, 37}, {98, 90, 89, 88, 87, 85, 84, 81, 65, 64, 58, 46}, {98, 93, 92, 90, 89, 87, 85, 60, 37}, {97, 96, 94, 90, 89, 87, 81, 72, 70, 67, 64, 57, 50}, {97, 96, 95, 85, 83, 81, 78, 73, 71, 59, 58, 57}, {95, 92, 91, 89, 88, 87, 85, 84, 83, 81, 79, 78, 76, 74, 59}, {90, 89, 87, 85, 83, 81, 78, 77, 65, 64, 59, 57}, {96, 94, 91, 89, 88, 85, 83, 82, 81, 79, 78, 64, 58}, {97, 95, 89, 85, 82, 78, 72, 70, 61, 57, 51}, {96, 91, 88, 87, 85, 83, 78, 64, 63, 57}, {91, 90, 86, 85, 81, 51, 50}, {92, 91, 84, 83, 80, 78, 71, 60, 57}, {94, 92, 85, 78, 72, 71, 66, 57}, {100, 89, 87, 85, 81, 66, 50}, {82, 81, 64, 58, 57, 50}, {92, 90, 89, 86, 82, 79, 78, 76, 73, 60}, {91, 87, 86, 84, 83, 80, 78, 77, 75, 70}, {92, 87, 85, 84, 81, 78, 76, 59}, {86, 85, 83, 81, 80, 79, 77, 76, 71}, {91, 88, 83, 82, 78, 77, 76, 75, 70}, {85, 84, 82, 79, 78, 76, 60}, {87, 85, 84, 82, 81, 80, 79, 77, 75}, {91, 90, 87, 84, 81, 57}, {94, 92, 86, 83, 82, 79, 78, 75}, {89, 88, 86, 83, 80, 75}, {82, 78, 57}, {81, 78, 57}, {84, 78, 77, 76, 75}, {88, 83, 80, 79, 76}, {84, 78, 77, 76, 75}, {89, 87, 84, 81, 77}, {83, 82, 81, 80, 76}, {85, 82, 78, 76}, {86, 79, 76, 75}, {79, 76, 75}, {86, 77, 75}, {93, 82, 80}, {81, 77, 75}, {79, 76, 75}, {80, 78, 75}, {81, 72}, {80, 76}, {86, 75}, {83, 80}, {78, 77}, {77, 75}, {78, 75}, {79}, {82}, {77}, {75}, {77}, {}, {}, {}, {}, {}, {}, {}, {}, {}, {}, {}, {}, {}, {}, {}, {}, {}, {}, {}, {}, {}, {}, {}, {}, {}, {}];
n_opt = 300;
dur = [2, 3, 27, 5, 14, 24, 7, 16, 29, 3, 22, 26, 7, 18, 20, 11, 17, 24, 2, 9, 10, 7, 20, 28, 1, 10, 29, 11, 14, 24, 4, 22, 28, 2, 7, 15, 9, 27, 28, 1, 4, 26, 7, 8, 17, 1, 2, 14, 6, 14, 15, 2, 5, 14, 9, 21, 29, 4, 5, 17, 14, 28, 29, 5, 13, 15, 15, 18, 27, 11, 16, 20, 5, 11, 23, 18, 20, 22, 12, 16, 22, 3, 15, 24, 4, 5, 21, 8, 15, 20, 6, 18, 25, 2, 11, 12, 2, 19, 28, 7, 14, 28, 12, 13, 27, 19, 21, 26, 1, 22, 27, 21, 26, 28, 14, 25, 28, 14, 23, 30, 2, 24, 30, 5, 8, 30, 7, 8, 17, 3, 12, 25, 7, 20, 24, 12, 18, 19, 8, 16, 19, 13, 23, 25, 19, 22, 29, 26, 27, 29, 17, 19, 27, 16, 21, 29, 14, 19, 29, 7, 11, 30, 12, 24, 25, 1, 8, 17, 2, 7, 21, 5, 24, 27, 3, 12, 25, 2, 9, 20, 7, 13, 24, 14, 15, 30, 14, 15, 27, 3, 22, 26, 10, 17, 19, 3, 18, 21, 14, 18, 24, 4, 14, 22, 1, 21, 30, 10, 27, 30, 9, 15, 18, 2, 6, 8, 15, 19, 27, 5, 18, 20, 20, 21, 29, 8, 15, 26, 3, 14, 24, 9, 17, 23, 7, 22, 26, 7, 19, 22, 1, 25, 27, 13, 18, 24, 3, 9, 12, 10, 16, 25, 2, 15, 23, 5, 17, 19, 4, 7, 20, 13, 19, 20, 2, 11, 21, 13, 14, 29, 16, 17, 22, 2, 12, 13, 2, 15, 22, 1, 29, 30, 7, 11, 18, 14, 17, 28, 11, 21, 24, 12, 15, 21, 6, 21, 24, 9, 13, 24];
rreq = [|3, 2, 2, 5, 5, 5, 4, 4, 4, 2, 2, 2, 2, 1, 1, 4, 4, 4, 2, 2, 2, 4, 3, 2, 3, 3, 3, 5, 5, 5, 3, 3, 1, 5, 4, 4, 5, 5, 5, 5, 3, 3, 4, 2, 2, 1, 1, 1, 4, 2, 1, 5, 5, 5, 5, 3, 3, 3, 3, 2, 3, 2, 1, 3, 3, 3, 3, 2, 1, 4, 2, 2, 2, 2, 1, 5, 4, 3, 4, 3, 3, 4, 4, 3, 5, 2, 1, 5, 4, 4, 2, 1, 1, 3, 2, 2, 3, 2, 1, 3, 3, 3, 4, 3, 1, 5, 4, 4, 3, 2, 2, 4, 4, 4, 4, 4, 4, 4, 3, 3, 3, 2, 2, 4, 4, 4, 2, 2, 2, 4, 4, 4, 4, 3, 3, 4, 4, 4, 4, 4, 4, 3, 2, 2, 3, 2, 2, 3, 2, 2, 3, 3, 3, 5, 3, 2, 4, 3, 1, 5, 3, 3, 2, 2, 2, 4, 4, 4, 2, 2, 1, 2, 2, 2, 5, 3, 2, 4, 4, 4, 4, 4, 3, 4, 2, 2, 5, 4, 3, 3, 3, 1, 3, 3, 2, 4, 2, 1, 2, 2, 2, 3, 2, 2, 4, 4, 4, 3, 3, 2, 3, 3, 3, 4, 3, 3, 1, 1, 1, 5, 5, 5, 5, 3, 3, 5, 4, 4, 3, 2, 2, 1, 1, 1, 4, 4, 4, 4, 3, 2, 2, 2, 2, 4, 3, 3, 4, 3, 2, 3, 3, 2, 2, 2, 2, 4, 4, 4, 4, 4, 3, 5, 4, 4, 3, 2, 1, 3, 2, 1, 4, 4, 4, 5, 3, 1, 2, 2, 2, 5, 5, 5, 3, 1, 1, 4, 4, 3, 4, 3, 3, 4, 2, 2, 3, 3, 3, 3, 2, 2
 |5, 4, 3, 2, 1, 1, 4, 2, 2, 3, 3, 1, 5, 2, 2, 5, 3, 3, 4, 4, 2, 2, 2, 2, 3, 3, 1, 4, 3, 3, 4, 3, 2, 5, 2, 1, 3, 3, 1, 3, 2, 1, 5, 4, 4, 3, 2, 2, 3, 3, 2, 2, 1, 1, 2, 1, 1, 4, 3, 2, 4, 4, 4, 4, 4, 4, 3, 3, 2, 3, 3, 3, 2, 2, 1, 4, 2, 1, 3, 3, 3, 2, 2, 2, 4, 3, 1, 3, 1, 1, 4, 3, 2, 2, 2, 1, 2, 2, 2, 1, 1, 1, 5, 2, 1, 4, 3, 3, 5, 4, 4, 4, 3, 2, 3, 3, 3, 4, 4, 4, 4, 4, 3, 5, 3, 3, 5, 5, 5, 1, 1, 1, 3, 2, 1, 4, 4, 4, 4, 3, 2, 4, 3, 3, 2, 2, 2, 5, 2, 2, 2, 2, 2, 3, 3, 1, 5, 4, 4, 4, 4, 4, 1, 1, 1, 4, 2, 2, 3, 1, 1, 5, 3, 2, 4, 4, 4, 3, 2, 1, 3, 3, 2, 3, 2, 2, 2, 1, 1, 4, 3, 2, 5, 3, 2, 1, 1, 1, 4, 4, 4, 3, 3, 3, 4, 4, 3, 2, 2, 1, 5, 2, 2, 3, 1, 1, 5, 3, 2, 5, 3, 2, 4, 4, 4, 3, 2, 1, 4, 4, 3, 4, 4, 4, 3, 1, 1, 3, 2, 1, 4, 4, 4, 2, 1, 1, 3, 1, 1, 2, 1, 1, 3, 3, 2, 1, 1, 1, 3, 1, 1, 4, 3, 1, 4, 3, 1, 4, 4, 4, 5, 5, 5, 3, 2, 2, 3, 3, 3, 5, 5, 5, 5, 3, 3, 2, 2, 2, 1, 1, 1, 3, 2, 1, 3, 2, 2, 5, 2, 2
 |5, 4, 3, 4, 3, 3, 4, 4, 4, 3, 2, 1, 4, 2, 1, 2, 1, 1, 4, 3, 1, 4, 3, 3, 4, 4, 4, 3, 2, 1, 4, 2, 2, 3, 2, 1, 3, 1, 1, 2, 2, 2, 4, 2, 2, 4, 4, 4, 4, 3, 2, 4, 4, 4, 3, 2, 2, 4, 3, 3, 2, 2, 2, 2, 2, 1, 3, 3, 2, 5, 4, 3, 2, 1, 1, 5, 3, 3, 3, 3, 3, 4, 4, 3, 5, 3, 3, 4, 3, 2, 2, 2, 1, 5, 4, 4, 2, 2, 2, 3, 2, 2, 5, 3, 2, 4, 4, 2, 4, 4, 4, 5, 3, 3, 5, 5, 5, 3, 3, 3, 3, 3, 3, 3, 3, 3, 5, 3, 3, 4, 3, 2, 3, 3, 2, 4, 4, 4, 5, 3, 1, 5, 4, 3, 2, 1, 1, 3, 2, 1, 5, 3, 1, 4, 2, 2, 2, 1, 1, 3, 3, 3, 3, 2, 1, 3, 2, 2, 3, 2, 2, 2, 1, 1, 4, 3, 3, 3, 3, 3, 4, 3, 2, 3, 2, 1, 4, 4, 4, 1, 1, 1, 3, 3, 2, 3, 2, 1, 3, 2, 2, 3, 3, 3, 4, 2, 2, 2, 2, 2, 3, 3, 3, 3, 3, 2, 2, 2, 2, 4, 4, 4, 2, 2, 2, 4, 4, 2, 5, 5, 5, 4, 2, 1, 4, 3, 2, 5, 5, 5, 3, 2, 2, 5, 4, 3, 3, 3, 2, 3, 1, 1, 1, 1, 1, 5, 5, 5, 4, 3, 1, 2, 1, 1, 3, 2, 2, 2, 1, 1, 5, 4, 4, 2, 2, 2, 5, 4, 4, 1, 1, 1, 4, 3, 2, 5, 2, 2, 4, 3, 2, 3, 3, 1, 4, 3, 1, 4, 4, 4
 |3, 2, 2, 4, 4, 4, 5, 4, 4, 4, 2, 2, 5, 4, 4, 4, 3, 3, 4, 2, 1, 1, 1, 1, 4, 3, 3, 5, 4, 3, 5, 3, 3, 3, 3, 3, 3, 1, 1, 4, 3, 2, 3, 3, 3, 1, 1, 1, 3, 1, 1, 2, 2, 1, 5, 4, 3, 4, 3, 1, 3, 3, 1, 5, 2, 1, 2, 2, 2, 3, 2, 1, 2, 2, 2, 4, 4, 3, 1, 1, 1, 4, 3, 3, 4, 3, 2, 1, 1, 1, 5, 4, 2, 1, 1, 1, 3, 3, 3, 4, 3, 2, 4, 3, 1, 5, 5, 5, 4, 3, 3, 5, 3, 2, 3, 3, 2, 2, 1, 1, 5, 3, 3, 2, 2, 2, 4, 2, 2, 2, 2, 2, 3, 2, 2, 3, 2, 2, 3, 3, 3, 4, 3, 3, 3, 2, 2, 3, 2, 2, 3, 3, 2, 3, 3, 3, 5, 3, 3, 4, 3, 2, 5, 4, 4, 4, 4, 4, 3, 3, 3, 4, 4, 2, 3, 2, 2, 4, 4, 4, 4, 3, 3, 5, 3, 2, 2, 2, 2, 3, 2, 2, 2, 2, 2, 4, 4, 3, 3, 2, 2, 3, 3, 3, 4, 3, 2, 2, 2, 1, 3, 2, 2, 4, 4, 4, 1, 1, 1, 4, 4, 4, 4, 3, 3, 4, 2, 2, 5, 3, 3, 3, 3, 1, 3, 2, 2, 3, 2, 2, 2, 2, 2, 3, 3, 3, 3, 3, 1, 1, 1, 1, 3, 3, 3, 3, 3, 1, 4, 3, 2, 4, 3, 3, 4, 3, 3, 5, 4, 3, 1, 1, 1, 3, 3, 3, 3, 3, 1, 2, 2, 2, 3, 3, 3, 3, 2, 2, 4, 3, 2, 2, 1, 1, 4, 4, 2, 4, 3, 2
 |24, 14, 6, 23, 17, 13, 21, 20, 19, 5, 3, 2, 18, 13, 9, 26, 12, 3, 5, 5, 5, 12, 7, 4, 22, 21, 16, 27, 24, 21, 16, 14, 13, 13, 9, 6, 20, 16, 14, 29, 21, 15, 17, 13, 5, 7, 4, 4, 28, 19, 16, 20, 14, 9, 25, 25, 25, 17, 12, 7, 21, 19, 15, 15, 10, 7, 17, 10, 9, 17, 9, 5, 9, 9, 5, 20, 14, 7, 20, 15, 14, 23, 21, 19, 11, 10, 10, 26, 15, 12, 13, 13, 9, 6, 5, 5, 24, 10, 7, 18, 14, 14, 12, 9, 6, 21, 13, 9, 15, 11, 9, 2, 2, 2, 19, 13, 8, 27, 24, 24, 17, 15, 11, 17, 14, 10, 27, 25, 24, 23, 21, 19, 20, 17, 11, 23, 20, 17, 18, 15, 12, 21, 19, 19, 15, 12, 11, 26, 19, 6, 15, 10, 5, 21, 20, 19, 14, 13, 13, 25, 14, 13, 6, 5, 5, 29, 28, 28, 3, 3, 1, 18, 16, 16, 22, 21, 21, 24, 19, 16, 30, 25, 19, 13, 9, 8, 13, 8, 8, 17, 13, 8, 13, 12, 11, 19, 17, 11, 17, 15, 10, 24, 19, 14, 22, 20, 14, 18, 17, 15, 15, 11, 10, 25, 18, 18, 13, 10, 8, 14, 12, 11, 14, 13, 12, 19, 16, 13, 13, 7, 1, 30, 25, 20, 18, 14, 13, 19, 13, 11, 14, 11, 9, 25, 15, 9, 24, 24, 24, 29, 11, 5, 20, 17, 13, 15, 10, 8, 7, 6, 4, 21, 18, 13, 29, 23, 22, 13, 7, 6, 3, 3, 3, 19, 16, 15, 11, 8, 6, 23, 21, 20, 22, 21, 21, 29, 27, 27, 12, 12, 10, 9, 5, 5, 27, 27, 26, 29, 22, 14
 |17, 10, 7, 17, 12, 7, 26, 24, 23, 20, 12, 10, 24, 14, 7, 23, 20, 19, 13, 8, 4, 26, 24, 16, 20, 16, 14, 26, 22, 15, 23, 20, 11, 19, 19, 15, 22, 20, 20, 23, 19, 16, 27, 26, 22, 23, 21, 17, 15, 10, 6, 23, 14, 9, 11, 5, 4, 22, 19, 3, 14, 10, 7, 7, 6, 6, 26, 24, 23, 24, 19, 16, 21, 19, 9, 22, 17, 17, 27, 12, 8, 11, 8, 7, 15, 15, 6, 24, 23, 20, 16, 13, 8, 4, 4, 4, 11, 8, 5, 25, 18, 12, 24, 23, 22, 17, 17, 16, 25, 25, 21, 14, 13, 12, 20, 14, 11, 26, 18, 13, 9, 6, 3, 26, 24, 22, 29, 28, 26, 26, 23, 13, 13, 11, 9, 23, 23, 16, 22, 10, 9, 28, 23, 21, 25, 21, 17, 7, 5, 5, 18, 18, 10, 25, 13, 8, 23, 11, 10, 27, 23, 22, 18, 18, 15, 18, 15, 12, 12, 8, 4, 11, 7, 4, 15, 10, 7, 25, 13, 6, 11, 6, 2, 19, 10, 1, 28, 18, 9, 14, 13, 13, 17, 15, 12, 21, 17, 3, 17, 17, 15, 11, 7, 4, 18, 15, 12, 11, 9, 7, 22, 19, 17, 17, 16, 14, 4, 4, 4, 3, 3, 3, 12, 9, 5, 24, 19, 12, 29, 26, 24, 17, 13, 9, 23, 19, 15, 18, 17, 17, 19, 12, 9, 23, 22, 21, 17, 11, 4, 18, 14, 10, 14, 14, 14, 26, 17, 16, 14, 14, 11, 25, 22, 13, 24, 17, 17, 25, 22, 22, 26, 18, 2, 4, 2, 2, 4, 4, 3, 21, 19, 16, 18, 17, 16, 23, 21, 20, 17, 16, 14, 17, 17, 16, 20, 16, 16, 6, 5, 5
 |23, 22, 21, 20, 18, 18, 13, 13, 12, 20, 12, 8, 25, 19, 15, 9, 6, 4, 14, 8, 8, 10, 8, 8, 29, 25, 22, 18, 14, 13, 27, 27, 27, 27, 23, 21, 25, 24, 23, 25, 25, 25, 12, 10, 6, 21, 20, 16, 20, 19, 14, 22, 14, 4, 11, 6, 4, 23, 11, 11, 26, 24, 17, 14, 13, 12, 19, 18, 11, 18, 13, 11, 13, 8, 7, 15, 14, 12, 11, 10, 6, 27, 23, 12, 22, 8, 2, 14, 11, 7, 23, 19, 14, 8, 6, 5, 14, 12, 10, 16, 15, 14, 19, 14, 13, 11, 10, 10, 21, 14, 8, 23, 22, 12, 18, 15, 12, 23, 16, 14, 28, 24, 14, 21, 19, 19, 4, 3, 1, 19, 19, 14, 11, 8, 4, 11, 10, 8, 4, 3, 3, 26, 17, 15, 24, 17, 4, 17, 17, 17, 18, 8, 6, 17, 14, 12, 22, 21, 17, 15, 13, 12, 24, 24, 18, 22, 19, 10, 21, 16, 14, 18, 11, 4, 29, 29, 29, 28, 26, 24, 23, 17, 11, 28, 26, 26, 26, 25, 25, 26, 24, 23, 20, 13, 11, 16, 9, 5, 28, 17, 8, 28, 24, 18, 10, 10, 7, 27, 11, 7, 15, 10, 7, 15, 11, 1, 25, 20, 18, 11, 5, 3, 23, 19, 12, 20, 20, 16, 8, 6, 5, 24, 21, 19, 15, 11, 8, 16, 15, 3, 21, 17, 13, 16, 15, 14, 8, 8, 8, 24, 18, 10, 17, 13, 11, 23, 15, 15, 11, 8, 6, 29, 27, 27, 21, 19, 14, 12, 7, 2, 25, 24, 23, 24, 23, 22, 25, 13, 5, 7, 6, 6, 20, 12, 10, 20, 20, 20, 7, 6, 6, 17, 12, 5, 26, 19, 15, 27, 21, 8
 |19, 15, 11, 6, 4, 2, 17, 12, 5, 28, 12, 6, 4, 2, 2, 23, 23, 23, 21, 18, 12, 23, 21, 9, 19, 11, 8, 26, 18, 8, 24, 23, 23, 22, 16, 12, 16, 11, 8, 30, 27, 27, 6, 6, 6, 7, 6, 5, 14, 9, 4, 29, 28, 27, 12, 6, 1, 9, 8, 7, 24, 21, 14, 14, 11, 10, 12, 11, 7, 10, 7, 4, 17, 16, 16, 28, 23, 21, 21, 15, 6, 25, 23, 20, 25, 17, 12, 15, 13, 11, 19, 19, 15, 15, 12, 11, 9, 6, 5, 15, 13, 12, 4, 3, 2, 20, 18, 16, 25, 16, 16, 27, 20, 18, 21, 16, 9, 25, 23, 23, 23, 19, 15, 15, 8, 6, 19, 16, 13, 29, 13, 9, 23, 22, 22, 17, 14, 14, 15, 11, 3, 12, 11, 9, 11, 11, 11, 14, 8, 3, 22, 13, 2, 20, 20, 19, 18, 15, 15, 20, 18, 11, 20, 16, 12, 14, 9, 5, 16, 10, 7, 20, 20, 20, 22, 14, 8, 18, 14, 14, 21, 20, 19, 5, 4, 1, 17, 10, 7, 19, 14, 11, 15, 15, 14, 19, 17, 16, 17, 15, 12, 3, 3, 3, 29, 26, 21, 19, 17, 13, 10, 9, 9, 20, 19, 18, 11, 9, 5, 9, 8, 5, 26, 20, 13, 27, 23, 16, 23, 21, 20, 14, 12, 11, 16, 9, 8, 8, 8, 8, 27, 25, 23, 18, 12, 7, 24, 20, 10, 20, 17, 5, 26, 20, 18, 25, 22, 18, 21, 19, 16, 14, 7, 5, 14, 10, 9, 19, 19, 19, 18, 18, 12, 9, 8, 7, 26, 21, 13, 8, 6, 4, 26, 22, 20, 27, 16, 1, 15, 13, 11, 25, 25, 25, 26, 14, 7, 19, 19, 18|];